&CONTROL
   calculation = 'scf'
   restart_mode='from_scratch',
   prefix='D2',
   tstress = .true.
   tprnfor = .true.
   pseudo_dir = './',
   outdir='./'
/

&SYSTEM
   ibrav = 2                
   celldm(1) = 6.66405         
   nat = 2                    
   ntyp = 1 
   nspin=2                  
   ecutwfc = 130            
/

&ELECTRONS
   conv_thr = 1.0d-8 
   mixing_beta = 0.7 
/
&ions
 /
 &cell
  press=70.,
 /
ATOMIC_SPECIES
 C 12.011 C.pz-vbc.UPF      
ATOMIC_POSITIONS crystal
 C 0.000 0.000 0.000
 C 0.250 0.250 0.250
K_POINTS automatic
 8 8 8 0 0 0

