&CONTROL
   calculation = 'scf'
   restart_mode='from_scratch',
   prefix='D5',
   tstress = .true.
   tprnfor = .true.
   pseudo_dir = './',
   outdir='./'
/

&system
   ibrav=  5,
   celldm(1) =5.04,
   celldm(4) =0.5,
   nat= 2, ntyp= 1,
   ecutwfc = 130.,
   /

&ELECTRONS
   conv_thr = 1.0d-8 ! SCF convergence
   mixing_beta = 0.7 ! mixing factor for self-consistency
/
&ions
 /
 &cell
  press=70.,
 /
ATOMIC_SPECIES
 C 12.011 C.pz-vbc.UPF
ATOMIC_POSITIONS {crystal}
   C  0.000  0.000  0.000
   C  0.250  0.250  0.250
K_POINTS automatic
 8 8 8 1 1 1






